NAME : X-n502-66-k26
COMMENT : "Generated by Queiroga, Frota, Sadykov, Subramanian, Uchoa and Vidal (2019)" 
TYPE : CVRP
DIMENSION : 502
EDGE_WEIGHT_TYPE : EUC_2D
CAPACITY : 13
NODE_COORD_SECTION
1 -1 0 0
2 0 159 917
3 0 635 200
4 0 278 907
5 0 667 141
6 0 119 954
7 0 29 448
8 0 590 87
9 0 375 990
10 0 511 374
11 0 298 957
12 0 107 911
13 0 323 766
14 0 161 892
15 0 151 912
16 0 438 1000
17 0 284 933
18 0 724 191
19 0 286 940
20 0 144 785
21 0 672 157
22 0 759 176
23 0 553 179
24 0 625 167
25 0 133 924
26 0 695 73
27 0 149 946
28 0 599 162
29 0 305 712
30 0 229 709
31 0 332 874
32 0 756 143
33 0 696 248
34 0 94 777
35 0 381 975
36 0 224 928
37 0 414 951
38 0 910 190
39 0 749 162
40 0 668 273
41 0 146 786
42 0 17 793
43 0 255 883
44 0 326 837
45 0 549 226
46 0 137 868
47 0 74 977
48 0 618 248
49 0 328 898
50 0 62 802
51 0 177 914
52 0 646 208
53 0 666 142
54 0 591 205
55 0 163 873
56 0 721 164
57 0 623 153
58 0 333 956
59 0 237 874
60 0 729 102
61 0 330 896
62 0 192 949
63 0 446 930
64 0 148 897
65 0 92 876
66 0 389 942
67 0 131 847
68 0 237 990
69 0 594 149
70 0 780 190
71 0 719 271
72 0 168 982
73 0 278 911
74 0 256 896
75 0 279 903
76 0 613 47
77 0 597 187
78 0 440 296
79 0 320 872
80 0 261 925
81 0 301 931
82 0 599 218
83 0 227 860
84 0 591 189
85 0 319 992
86 0 617 172
87 0 118 839
88 0 117 909
89 0 578 300
90 0 503 966
91 0 232 907
92 0 34 955
93 0 191 816
94 0 273 42
95 0 171 877
96 0 132 920
97 0 113 906
98 0 581 125
99 0 138 910
100 0 149 870
101 0 622 303
102 0 278 845
103 0 587 60
104 0 234 818
105 0 310 832
106 0 568 227
107 0 711 167
108 0 728 251
109 0 185 937
110 0 110 840
111 0 254 945
112 0 140 937
113 0 238 919
114 0 9 875
115 0 97 799
116 0 804 100
117 0 243 927
118 0 310 938
119 0 171 826
120 0 677 213
121 0 708 166
122 0 151 931
123 0 262 920
124 0 121 769
125 0 149 660
126 0 199 749
127 0 78 738
128 0 323 963
129 0 63 799
130 0 233 931
131 0 693 170
132 0 673 156
133 0 213 980
134 0 620 191
135 0 125 946
136 0 748 117
137 0 250 926
138 0 661 327
139 0 147 831
140 0 181 923
141 0 548 235
142 0 682 157
143 0 263 898
144 0 469 339
145 0 144 915
146 0 569 234
147 0 577 450
148 0 598 231
149 0 693 229
150 0 227 952
151 0 211 643
152 0 12 942
153 0 288 969
154 0 734 312
155 0 641 37
156 0 241 761
157 0 618 206
158 0 156 915
159 0 712 391
160 0 74 787
161 0 705 109
162 0 240 902
163 0 603 338
164 0 572 363
165 0 620 204
166 0 272 925
167 0 652 231
168 0 585 299
169 0 107 789
170 0 617 223
171 0 242 907
172 0 601 240
173 0 453 388
174 0 301 889
175 0 246 818
176 0 356 916
177 0 681 238
178 0 607 119
179 0 351 970
180 0 159 896
181 0 582 156
182 0 472 257
183 0 143 878
184 0 113 926
185 0 236 888
186 0 738 73
187 0 677 194
188 0 716 196
189 0 532 304
190 0 334 772
191 0 514 326
192 0 220 712
193 0 631 121
194 0 531 262
195 0 707 228
196 0 617 160
197 0 624 151
198 0 609 191
199 0 599 228
200 0 210 727
201 0 481 78
202 0 239 749
203 0 650 373
204 0 550 138
205 0 393 807
206 0 195 806
207 0 81 873
208 0 375 829
209 0 506 104
210 0 104 898
211 0 674 225
212 0 271 910
213 0 222 806
214 0 655 37
215 0 324 847
216 0 622 54
217 0 399 213
218 0 101 875
219 0 668 402
220 0 30 895
221 0 241 842
222 0 627 176
223 0 869 235
224 0 812 223
225 0 561 286
226 0 171 973
227 0 582 242
228 0 192 858
229 0 651 183
230 0 175 840
231 0 365 946
232 0 215 770
233 0 125 924
234 0 296 984
235 0 682 174
236 0 165 846
237 0 136 982
238 0 397 821
239 0 185 807
240 0 236 972
241 0 278 948
242 0 338 880
243 0 759 215
244 0 498 51
245 0 177 962
246 0 253 878
247 0 190 865
248 0 612 266
249 0 204 902
250 0 169 877
251 0 101 877
252 0 586 247
253 0 242 885
254 0 235 775
255 0 585 201
256 0 592 164
257 0 461 897
258 0 652 246
259 0 267 899
260 0 204 860
261 0 298 852
262 0 156 936
263 0 135 977
264 0 268 927
265 0 303 918
266 0 110 877
267 0 625 248
268 0 265 857
269 0 592 325
270 0 715 115
271 0 565 376
272 0 306 759
273 0 208 961
274 0 120 892
275 0 115 963
276 0 33 726
277 0 750 227
278 0 432 927
279 0 97 802
280 0 552 303
281 0 257 846
282 0 191 873
283 0 595 189
284 0 190 815
285 0 175 949
286 0 359 932
287 0 458 246
288 0 175 872
289 0 486 173
290 0 320 818
291 0 207 945
292 0 32 894
293 0 183 837
294 0 76 937
295 0 154 972
296 0 215 886
297 0 647 225
298 0 90 963
299 0 635 199
300 0 310 860
301 0 757 281
302 0 528 222
303 0 187 947
304 0 568 144
305 0 179 893
306 0 429 939
307 0 323 841
308 0 527 77
309 0 116 883
310 0 792 274
311 0 611 282
312 0 170 927
313 0 776 408
314 0 136 925
315 0 161 968
316 0 575 237
317 0 283 911
318 0 684 269
319 0 303 957
320 0 98 843
321 0 608 145
322 0 136 934
323 0 412 885
324 0 435 879
325 0 421 265
326 0 189 916
327 0 296 925
328 0 394 969
329 0 161 856
330 0 222 947
331 0 189 816
332 0 470 256
333 1 239 875
334 1 171 888
335 1 433 776
336 1 434 170
337 1 205 941
338 1 55 872
339 1 354 803
340 1 612 189
341 1 135 857
342 1 664 215
343 1 145 863
344 1 740 71
345 1 102 946
346 1 592 250
347 1 519 99
348 1 214 884
349 1 402 983
350 1 593 174
351 1 118 922
352 1 738 121
353 1 41 948
354 1 350 705
355 1 544 124
356 1 196 681
357 1 160 889
358 1 159 858
359 1 654 195
360 1 782 275
361 1 328 864
362 1 605 668
363 1 241 885
364 1 740 404
365 1 266 914
366 1 717 180
367 1 458 81
368 1 684 230
369 1 301 860
370 1 180 920
371 1 301 865
372 1 294 964
373 1 383 912
374 1 559 143
375 1 747 383
376 1 433 966
377 1 563 258
378 1 827 145
379 1 294 784
380 1 147 707
381 1 173 944
382 1 298 915
383 1 175 923
384 1 333 919
385 1 280 869
386 1 596 219
387 1 614 286
388 1 104 861
389 1 279 771
390 1 188 938
391 1 100 840
392 1 117 866
393 1 722 126
394 1 215 853
395 1 276 893
396 1 444 296
397 1 547 286
398 1 213 803
399 1 86 990
400 1 173 947
401 1 672 173
402 1 130 983
403 1 360 987
404 1 718 192
405 1 66 817
406 1 657 97
407 1 33 914
408 1 649 414
409 1 680 208
410 1 623 266
411 1 678 101
412 1 270 864
413 1 620 232
414 1 335 935
415 1 451 57
416 1 295 987
417 1 101 738
418 1 359 881
419 1 158 934
420 1 182 919
421 1 717 177
422 1 653 54
423 1 683 139
424 1 381 928
425 1 277 962
426 1 645 238
427 1 608 267
428 1 625 217
429 1 565 76
430 1 523 188
431 1 519 855
432 1 165 947
433 1 305 922
434 1 406 294
435 1 125 702
436 1 227 858
437 1 774 36
438 1 611 204
439 1 107 703
440 1 209 979
441 1 557 175
442 1 80 903
443 1 172 890
444 1 203 984
445 1 665 200
446 1 230 892
447 1 138 914
448 1 270 872
449 1 702 198
450 1 737 258
451 1 150 975
452 1 666 196
453 1 174 804
454 1 266 959
455 1 142 936
456 1 142 976
457 1 79 750
458 1 208 836
459 1 439 240
460 1 438 339
461 1 841 230
462 1 289 910
463 1 191 888
464 1 309 861
465 1 242 958
466 1 408 932
467 1 243 954
468 1 616 200
469 1 729 281
470 1 642 230
471 1 707 106
472 1 395 678
473 1 134 820
474 1 514 197
475 1 547 236
476 1 660 98
477 1 0 923
478 1 190 870
479 1 302 673
480 1 50 967
481 1 79 930
482 1 628 254
483 1 3 965
484 1 159 988
485 1 613 252
486 1 229 833
487 1 343 877
488 1 255 772
489 1 626 246
490 1 332 921
491 1 214 861
492 1 200 882
493 1 117 872
494 1 119 964
495 1 370 865
496 1 632 243
497 1 304 893
498 1 52 899
499 1 434 232
500 1 288 773
501 1 301 905
502 1 284 799
DEMAND_SECTION
1 0
2 1
3 1
4 1
5 1
6 1
7 1
8 1
9 1
10 1
11 1
12 1
13 1
14 1
15 1
16 1
17 1
18 1
19 1
20 1
21 1
22 1
23 1
24 1
25 1
26 1
27 1
28 1
29 1
30 1
31 1
32 1
33 1
34 1
35 1
36 1
37 1
38 1
39 1
40 1
41 1
42 1
43 1
44 1
45 1
46 1
47 1
48 1
49 1
50 1
51 1
52 1
53 1
54 1
55 1
56 1
57 1
58 1
59 1
60 1
61 1
62 1
63 1
64 1
65 1
66 1
67 1
68 1
69 1
70 1
71 1
72 1
73 1
74 1
75 1
76 1
77 1
78 1
79 1
80 1
81 1
82 1
83 1
84 1
85 1
86 1
87 1
88 1
89 1
90 1
91 1
92 1
93 1
94 1
95 1
96 1
97 1
98 1
99 1
100 1
101 1
102 1
103 1
104 1
105 1
106 1
107 1
108 1
109 1
110 1
111 1
112 1
113 1
114 1
115 1
116 1
117 1
118 1
119 1
120 1
121 1
122 1
123 1
124 1
125 1
126 1
127 1
128 1
129 1
130 1
131 1
132 1
133 1
134 1
135 1
136 1
137 1
138 1
139 1
140 1
141 1
142 1
143 1
144 1
145 1
146 1
147 1
148 1
149 1
150 1
151 1
152 1
153 1
154 1
155 1
156 1
157 1
158 1
159 1
160 1
161 1
162 1
163 1
164 1
165 1
166 1
167 1
168 1
169 1
170 1
171 1
172 1
173 1
174 1
175 1
176 1
177 1
178 1
179 1
180 1
181 1
182 1
183 1
184 1
185 1
186 1
187 1
188 1
189 1
190 1
191 1
192 1
193 1
194 1
195 1
196 1
197 1
198 1
199 1
200 1
201 1
202 1
203 1
204 1
205 1
206 1
207 1
208 1
209 1
210 1
211 1
212 1
213 1
214 1
215 1
216 1
217 1
218 1
219 1
220 1
221 1
222 1
223 1
224 1
225 1
226 1
227 1
228 1
229 1
230 1
231 1
232 1
233 1
234 1
235 1
236 1
237 1
238 1
239 1
240 1
241 1
242 1
243 1
244 1
245 1
246 1
247 1
248 1
249 1
250 1
251 1
252 1
253 1
254 1
255 1
256 1
257 1
258 1
259 1
260 1
261 1
262 1
263 1
264 1
265 1
266 1
267 1
268 1
269 1
270 1
271 1
272 1
273 1
274 1
275 1
276 1
277 1
278 1
279 1
280 1
281 1
282 1
283 1
284 1
285 1
286 1
287 1
288 1
289 1
290 1
291 1
292 1
293 1
294 1
295 1
296 1
297 1
298 1
299 1
300 1
301 1
302 1
303 1
304 1
305 1
306 1
307 1
308 1
309 1
310 1
311 1
312 1
313 1
314 1
315 1
316 1
317 1
318 1
319 1
320 1
321 1
322 1
323 1
324 1
325 1
326 1
327 1
328 1
329 1
330 1
331 1
332 1
333 1
334 1
335 1
336 1
337 1
338 1
339 1
340 1
341 1
342 1
343 1
344 1
345 1
346 1
347 1
348 1
349 1
350 1
351 1
352 1
353 1
354 1
355 1
356 1
357 1
358 1
359 1
360 1
361 1
362 1
363 1
364 1
365 1
366 1
367 1
368 1
369 1
370 1
371 1
372 1
373 1
374 1
375 1
376 1
377 1
378 1
379 1
380 1
381 1
382 1
383 1
384 1
385 1
386 1
387 1
388 1
389 1
390 1
391 1
392 1
393 1
394 1
395 1
396 1
397 1
398 1
399 1
400 1
401 1
402 1
403 1
404 1
405 1
406 1
407 1
408 1
409 1
410 1
411 1
412 1
413 1
414 1
415 1
416 1
417 1
418 1
419 1
420 1
421 1
422 1
423 1
424 1
425 1
426 1
427 1
428 1
429 1
430 1
431 1
432 1
433 1
434 1
435 1
436 1
437 1
438 1
439 1
440 1
441 1
442 1
443 1
444 1
445 1
446 1
447 1
448 1
449 1
450 1
451 1
452 1
453 1
454 1
455 1
456 1
457 1
458 1
459 1
460 1
461 1
462 1
463 1
464 1
465 1
466 1
467 1
468 1
469 1
470 1
471 1
472 1
473 1
474 1
475 1
476 1
477 1
478 1
479 1
480 1
481 1
482 1
483 1
484 1
485 1
486 1
487 1
488 1
489 1
490 1
491 1
492 1
493 1
494 1
495 1
496 1
497 1
498 1
499 1
500 1
501 1
502 1
DEPOT_SECTION
1
-1
EOF
